$$$$$$$$$$$$$$$$$$$$$$$$$$$$$$$$$$$$$$$$$$$$$$$$$$$$$$$$$$$$$$$$$$$$$$$$$$$$$$
$ Date: 2022-04-08 22:49
$ Components: C, CR, FE, MO, NB, NI, VA
$ Phases: BCC_A2, CEMENTITE_D011, CR3C2, DELTA, DIAMOND_A4, D_NIMO, FCC_A1,
$  GAMMA_DP, GAMMA_PRIME, GRAPHITE, HCP_A3, LAVES, LAVES_PHASE_C15, LIQUID,
$  M23C6, M7C3, MC_ETA, MC_SHP, MONI4, MU_PHASE, NBB, NBNI8, NIAL, NITI2,
$  R_PHASE, SIGMA
$ Generated by suh960 (pycalphad 0.8.4)
$$$$$$$$$$$$$$$$$$$$$$$$$$$$$$$$$$$$$$$$$$$$$$$$$$$$$$$$$$$$$$$$$$$$$$$$$$$$$$

ELEMENT C GRAPHITE 12.011 1054.0 5.74 !
ELEMENT CR BCC_A2 51.996 4050.0 23.543 !
ELEMENT CU FCC_A1 6.3546E+01  5.0041E+03  3.3150E+01 !
ELEMENT FE BCC_A2 55.847 4489.0 27.28 !
ELEMENT MO BCC_A2 95.94 4589.0 28.56 !
ELEMENT NB BCC_A2 92.906 5220.0 36.27 !
ELEMENT NI FCC_A1 58.69 4787.0 29.796 !
ELEMENT VA VACUUM 0.0 0.0 0.0 !


FUNCTION ABF0AAA 298.15 -0.75*DGF0A3B# + 0.75*DGF1A3B#; 6000.0 N !
FUNCTION ABF0AAB 298.15 -0.25*DGF0A3B# - 0.5*DGF0AB# - 0.25*DGF1A3B# +
   0.5*DGF1AB#; 6000.0 N !
FUNCTION ABF0ABB 298.15 -0.5*DGF0AB# - 0.25*DGF0B3A# - 0.5*DGF1AB# +
   0.25*DGF1B3A#; 6000.0 N !
FUNCTION ABF0BBB 298.15 -0.75*DGF0B3A# - 0.75*DGF1B3A#; 6000.0 N !
FUNCTION ABF1AAA 298.15 -0.75*DGF1A3B#; 6000.0 N !
FUNCTION ABF1AAB 298.15 -0.25*DGF1A3B# - 0.5*DGF1AB#; 6000.0 N !
FUNCTION ABF1ABB 298.15 -0.5*DGF1AB# - 0.25*DGF1B3A#; 6000.0 N !
FUNCTION ABF1BBB 298.15 -0.75*DGF1B3A#; 6000.0 N !
FUNCTION BF0LAAA 298.15 -0.75*DBF0A3B# + 0.75*DBF1A3B#; 6000.0 N !
FUNCTION BF0LAAB 298.15 -0.25*DBF0A3B# - 0.5*DBF0AB# - 0.25*DBF1A3B# +
   0.5*DBF1AB#; 6000.0 N !
FUNCTION BF0LABB 298.15 -0.5*DBF0AB# - 0.25*DBF0B3A# - 0.5*DBF1AB# +
   0.25*DBF1B3A#; 6000.0 N !
FUNCTION BF0LBBB 298.15 -0.75*DBF0B3A# - 0.75*DBF1B3A#; 6000.0 N !
FUNCTION BF1LAAA 298.15 -0.75*DBF1A3B#; 6000.0 N !
FUNCTION BF1LAAB 298.15 -0.75*DBF1A3B#; 6000.0 N !
FUNCTION BF1LABB 298.15 -0.5*DBF1AB# - 0.25*DBF1B3A#; 6000.0 N !
FUNCTION BF1LBBB 298.15 -0.75*DBF1B3A#; 6000.0 N !
FUNCTION BLFAB0 298.15 10.186; 6000.0 N !
FUNCTION BLFAB1 298.15 8.834; 6000.0 N !
FUNCTION BLFAB2 298.15 -4.006; 6000.0 N !
FUNCTION BLFAB3 298.15 -24.828; 6000.0 N !
FUNCTION BLFAB4 298.15 -18.686; 6000.0 N !
FUNCTION BMAFCC 298.15 -2.1; 6000.0 N !
FUNCTION BMBFCC 298.15 0.62; 6000.0 N !
FUNCTION DBF0A3B 298.15 0.115; 6000.0 N !
FUNCTION DBF0AB 298.15 0.115; 6000.0 N !
FUNCTION DBF0B3A 298.15 0.115; 6000.0 N !
FUNCTION DBF1A3B 298.15 0.0; 6000.0 N !
FUNCTION DBF1AB 298.15 0.0; 6000.0 N !
FUNCTION DBF1B3A 298.15 0.0; 6000.0 N !
FUNCTION DGF0A3B 298.15 4470.65465; 6000.0 N !
FUNCTION DGF0AB 298.15 -1250; 6000.0 N !
FUNCTION DGF0B3A 298.15 -3236.01879; 6000.0 N !
FUNCTION DGF1A3B 298.15 0.0; 6000.0 N !
FUNCTION DGF1AB 298.15 0.0; 6000.0 N !
FUNCTION DGF1B3A 298.15 766.93282; 6000.0 N !

FUNCTION DTF0A3B 298.15 245; 6000.0 N !
FUNCTION DTF0AB 298.15 245; 6000.0 N !
FUNCTION DTF0B3A 298.15 245; 6000.0 N !
FUNCTION DTF1A3B 298.15 0.0; 6000.0 N !
FUNCTION DTF1AB 298.15 0.0; 6000.0 N !
FUNCTION DTF1B3A 298.15 0.0; 6000.0 N !


FUNCTION ACDIA 298.15 5.0E-9*T**2 + 2.43E-6*T; 6000.0 N !
FUNCTION BCDIA 298.15 8.5E-12*P + 1; 6000.0 N !
FUNCTION CCDIA 298.15 6.8E-12; 6000.0 N !
FUNCTION DCDIA 298.15 LN(BCDIA#); 6000.0 N !
FUNCTION DGLAV 298.15 5000; 6000.0 N !
FUNCTION ECDIA 298.15 LN(CCDIA#); 6000.0 N !
FUNCTION TF0LBBB 298.15 -0.75*DTF0B3A# - 0.75*DTF1B3A#; 6000.0 N !
FUNCTION TF1LAAA 298.15 -0.75*DTF1A3B#; 6000.0 N !
FUNCTION TF1LAAB 298.15 -0.25*DTF1A3B# - 0.5*DTF1AB#; 6000.0 N !
FUNCTION TF1LABB 298.15 -0.5*DTF1AB# - 0.25*DTF1B3A#; 6000.0 N !
FUNCTION TF1LBBB 298.15 -0.75*DTF1B3A#; 6000.0 N !
FUNCTION TLFAB0 298.15 2295.6; 6000.0 N !
FUNCTION TLFAB1 298.15 -448.8; 6000.0 N !
FUNCTION TLFAB2 298.15 -1186.0; 6000.0 N !
FUNCTION TLFAB3 298.15 -4367.6; 6000.0 N !
FUNCTION TLFAB4 298.15 -8658.1; 6000.0 N !
FUNCTION TLFAB5 298.15 -5671.0; 6000.0 N !
FUNCTION GLFAB0 298.15 2.36733*T - 15690.2618; 6000.0 N !
FUNCTION GLFAB1 298.15 7781.85057; 6000.0 N !
FUNCTION GLFAB2 298.15 -1649.56071; 6000.0 N !
FUNCTION TCAFCC 298.15 -201; 6000.0 N !
FUNCTION TCBFCC 298.15 625; 6000.0 N !
FUNCTION TF0LAAA 298.15 -0.75*DTF0A3B# + 0.75*DTF1A3B#; 6000.0 N !
FUNCTION TF0LAAB 298.15 -0.25*DTF0A3B# - 0.5*DTF0AB# - 0.25*DTF1A3B# +
   0.5*DTF1AB#; 6000.0 N !
FUNCTION TF0LABB 298.15 -0.5*DTF0AB# - 0.25*DTF0B3A# - 0.5*DTF1AB# +
   0.25*DTF1B3A#; 6000.0 N !

FUNCTION FF0001 1 0; 10000 N !
FUNCTION FF0002 1 0; 10000 N !
FUNCTION FF0004 1 0; 10000 N !
FUNCTION FF0005 298.15 -10000; 6000.0 N !
FUNCTION FF0006 1 0; 10000 N !
FUNCTION FF0008 1.0 213770.0; 10000.0 N !
FUNCTION FF0009 298.15 172401; 6000.0 N !
FUNCTION FF0012 298.15 349643; 6000.0 N !
FUNCTION FF0013 298.15 301487; 6000.0 N !
FUNCTION FF0016 298.15 457914; 6000.0 N !
FUNCTION FF0017 298.15 274720; 6000.0 N !
FUNCTION FF0019 298.15 -129558; 6000.0 N !
FUNCTION FF0020 298.15 514213; 6000.0 N !
FUNCTION FF0021 298.15 377103; 6000.0 N !
FUNCTION FF0023 298.15 68126.8; 6000.0 N !
FUNCTION FF0024 298.15 408532; 6000.0 N !
FUNCTION FF0025 298.15 383155; 6000.0 N !
FUNCTION FF0027 298.15 -143568; 6000.0 N !
FUNCTION FF0028 298.15 226816; 6000.0 N !
FUNCTION FF0029 298.15 206832; 6000.0 N !
FUNCTION FF0031 298.15 -38275.4; 6000.0 N !
FUNCTION FF0036 298.15 473468; 6000.0 N !
FUNCTION FF0037 298.15 335555; 6000.0 N !
FUNCTION FF0039 298.15 214322; 6000.0 N !
FUNCTION FF0109 1.0 -5000; 6000.0 N !
FUNCTION FF0110 1.0 0; 10000 N !
FUNCTION FF10000 1.0 196192.0; 10000.0 N !
FUNCTION FF10001 1.0 552747.0; 10000.0 N !
FUNCTION FF10002 1.0 626795.0; 10000.0 N !
FUNCTION FF10003 1.0 534768.0; 10000.0 N !
FUNCTION FF10004 1.0 105527.0; 10000.0 N !
FUNCTION FF10005 1.0 139617.0; 10000.0 N !
FUNCTION FF10006 1.0 152643.0; 10000.0 N !
FUNCTION FF10007 1.0 142898.0; 10000.0 N !
FUNCTION FF10008 1.0 564388.0; 10000.0 N !
FUNCTION FF10009 1.0 651569.0; 10000.0 N !
FUNCTION FF10010 1.0 548830.0; 10000.0 N !
FUNCTION FF10011 1.0 52451.9; 10000.0 N !
FUNCTION FF10012 1.0 85358.9; 10000.0 N !
FUNCTION FF10013 1.0 62381.1; 10000.0 N !
FUNCTION FF10014 1.0 194790.0; 10000.0 N !
FUNCTION FF10015 1.0 508085.0; 10000.0 N !
FUNCTION FF10016 1.0 575836.0; 10000.0 N !
FUNCTION FF10017 1.0 499726.0; 10000.0 N !
FUNCTION FF10018 1.0 166363.0; 10000.0 N !
FUNCTION FF10019 1.0 105738.0; 10000.0 N !
FUNCTION FF10020 1.0 168811.0; 10000.0 N !
FUNCTION FF10021 1.0 93692.3; 10000.0 N !
FUNCTION FF10022 1.0 436763.0; 10000.0 N !
FUNCTION FF10023 1.0 490467.0; 10000.0 N !
FUNCTION FF10024 1.0 405890.0; 10000.0 N !
FUNCTION FF10025 1.0 21847.0; 10000.0 N !
FUNCTION FF10026 1.0 60962.8; 10000.0 N !
FUNCTION FF10027 1.0 13764.5; 10000.0 N !
FUNCTION FF10028 1.0 78320.4; 10000.0 N !
FUNCTION FF10029 1.0 114476.0; 10000.0 N !
FUNCTION FF1003 298.15 -111189.0; 6000.0 N !
FUNCTION FF10030 1.0 77412.4; 10000.0 N !
FUNCTION FF10031 1.0 454488.0; 10000.0 N !
FUNCTION FF10032 1.0 501505.0; 10000.0 N !
FUNCTION FF10033 1.0 428845.0; 10000.0 N !
FUNCTION FF10034 1.0 40436.7; 10000.0 N !
FUNCTION FF10035 1.0 55808.6; 10000.0 N !
FUNCTION FF10036 1.0 33771.5; 10000.0 N !
FUNCTION FF10037 1.0 107635.0; 10000.0 N !
FUNCTION FF10038 1.0 164587.0; 10000.0 N !
FUNCTION FF10039 1.0 99038.5; 10000.0 N !
FUNCTION FF1004 298.15 8.15289; 6000.0 N !
FUNCTION FF10040 1.0 390972.0; 10000.0 N !
FUNCTION FF10041 1.0 432458.0; 10000.0 N !
FUNCTION FF10042 1.0 377082.0; 10000.0 N !
FUNCTION FF10043 1.0 69939.7; 10000.0 N !
FUNCTION FF10044 1.0 110636.0; 10000.0 N !
FUNCTION FF10045 1.0 45639.1; 10000.0 N !
FUNCTION FF10046 1.0 201576.0; 10000.0 N !
FUNCTION FF10047 1.0 534425.0; 10000.0 N !
FUNCTION FF10048 1.0 610831.0; 10000.0 N !
FUNCTION FF10049 1.0 490633.0; 10000.0 N !
FUNCTION FF1005 298.15 -47.2511071; 6000.0 N !
FUNCTION FF10050 1.0 89399.7; 10000.0 N !
FUNCTION FF10051 1.0 162273.0; 10000.0 N !
FUNCTION FF10052 1.0 159746.0; 10000.0 N !
FUNCTION FF10053 1.0 169392.0; 10000.0 N !
FUNCTION FF10054 1.0 555724.0; 10000.0 N !
FUNCTION FF10055 1.0 640860.0; 10000.0 N !
FUNCTION FF10056 1.0 506689.0; 10000.0 N !
FUNCTION FF10057 1.0 68434.6; 10000.0 N !
FUNCTION FF10058 1.0 66472.1; 10000.0 N !
FUNCTION FF10059 1.0 91634.3; 10000.0 N !
FUNCTION FF10060 1.0 178938.0; 10000.0 N !
FUNCTION FF10061 1.0 482374.0; 10000.0 N !
FUNCTION FF10062 1.0 551644.0; 10000.0 N !
FUNCTION FF10063 1.0 442784.0; 10000.0 N !
FUNCTION FF10064 1.0 160070.0; 10000.0 N !
FUNCTION FF10065 1.0 127137.0; 10000.0 N !
FUNCTION FF10066 1.0 182646.0; 10000.0 N !
FUNCTION FF10067 1.0 123055.0; 10000.0 N !
FUNCTION FF10068 1.0 487061.0; 10000.0 N !
FUNCTION FF10069 1.0 568459.0; 10000.0 N !
FUNCTION FF10070 1.0 471590.0; 10000.0 N !
FUNCTION FF10071 1.0 36622.6; 10000.0 N !
FUNCTION FF10072 1.0 100373.0; 10000.0 N !
FUNCTION FF10073 1.0 52560.0; 10000.0 N !
FUNCTION FF10074 1.0 91151.8; 10000.0 N !
FUNCTION FF10075 1.0 105307.0; 10000.0 N !
FUNCTION FF10076 1.0 92188.1; 10000.0 N !
FUNCTION FF10077 1.0 449621.0; 10000.0 N !
FUNCTION FF10078 1.0 536250.0; 10000.0 N !
FUNCTION FF10079 1.0 435217.0; 10000.0 N !
FUNCTION FF1008 298.15 0.1474; 6000.0 N !
FUNCTION FF10080 1.0 24532.2; 10000.0 N !
FUNCTION FF10081 1.0 45285.0; 10000.0 N !
FUNCTION FF10082 1.0 42639.4; 10000.0 N !
FUNCTION FF10083 1.0 113192.0; 10000.0 N !
FUNCTION FF10084 1.0 169642.0; 10000.0 N !
FUNCTION FF10085 1.0 113099.0; 10000.0 N !
FUNCTION FF10086 1.0 452959.0; 10000.0 N !
FUNCTION FF10087 1.0 523119.0; 10000.0 N !
FUNCTION FF10088 1.0 456429.0; 10000.0 N !
FUNCTION FF10089 1.0 78606.9; 10000.0 N !
FUNCTION FF10090 1.0 141379.0; 10000.0 N !
FUNCTION FF10091 1.0 84233.9; 10000.0 N !
FUNCTION FF10092 1.0 33579.5; 10000.0 N !
FUNCTION FF10093 1.0 100215.0; 10000.0 N !
FUNCTION FF10094 1.0 19213.0; 10000.0 N !
FUNCTION FF10095 1.0 390242.0; 10000.0 N !
FUNCTION FF10096 1.0 435404.0; 10000.0 N !
FUNCTION FF10097 1.0 360260.0; 10000.0 N !
FUNCTION FF10098 1.0 -16144.8; 10000.0 N !
FUNCTION FF10099 1.0 32804.7; 10000.0 N !
FUNCTION FF10100 1.0 -26886.4; 10000.0 N !
FUNCTION FF10101 1.0 -5064.47; 10000.0 N !
FUNCTION FF10102 1.0 25258.7; 10000.0 N !
FUNCTION FF10103 1.0 -11491.3; 10000.0 N !
FUNCTION FF10104 1.0 349027.0; 10000.0 N !
FUNCTION FF10105 1.0 412414.0; 10000.0 N !
FUNCTION FF10106 1.0 321691.0; 10000.0 N !
FUNCTION FF10107 1.0 -22603.4; 10000.0 N !
FUNCTION FF10108 1.0 -13101.6; 10000.0 N !
FUNCTION FF10109 1.0 -36806.9; 10000.0 N !
FUNCTION FF10110 1.0 19195.6; 10000.0 N !
FUNCTION FF10111 1.0 89819.4; 10000.0 N !
FUNCTION FF10112 1.0 7563.42; 10000.0 N !
FUNCTION FF10113 1.0 367618.0; 10000.0 N !
FUNCTION FF10114 1.0 385461.0; 10000.0 N !
FUNCTION FF10115 1.0 347268.0; 10000.0 N !
FUNCTION FF10116 1.0 4052.35; 10000.0 N !
FUNCTION FF10117 1.0 49113.5; 10000.0 N !
FUNCTION FF10118 1.0 -24211.8; 10000.0 N !
FUNCTION FF10119 1.0 155951.0; 10000.0 N !
FUNCTION FF10120 1.0 190965.0; 10000.0 N !
FUNCTION FF10121 1.0 157815.0; 10000.0 N !
FUNCTION FF10122 1.0 473856.0; 10000.0 N !
FUNCTION FF10123 1.0 551667.0; 10000.0 N !
FUNCTION FF10124 1.0 435206.0; 10000.0 N !
FUNCTION FF10125 1.0 69111.9; 10000.0 N !
FUNCTION FF10126 1.0 90215.9; 10000.0 N !
FUNCTION FF10127 1.0 95999.2; 10000.0 N !
FUNCTION FF10128 1.0 116341.0; 10000.0 N !
FUNCTION FF10129 1.0 109976.0; 10000.0 N !
FUNCTION FF10130 1.0 117478.0; 10000.0 N !
FUNCTION FF10131 1.0 438297.0; 10000.0 N !
FUNCTION FF10132 1.0 515820.0; 10000.0 N !
FUNCTION FF10133 1.0 398117.0; 10000.0 N !
FUNCTION FF10134 1.0 33127.0; 10000.0 N !
FUNCTION FF10135 1.0 12324.9; 10000.0 N !
FUNCTION FF10136 1.0 56402.0; 10000.0 N !
FUNCTION FF10137 1.0 123229.0; 10000.0 N !
FUNCTION FF10138 1.0 166710.0; 10000.0 N !
FUNCTION FF10139 1.0 119449.0; 10000.0 N !
FUNCTION FF10140 1.0 426283.0; 10000.0 N !
FUNCTION FF10141 1.0 502326.0; 10000.0 N !
FUNCTION FF10142 1.0 393453.0; 10000.0 N !
FUNCTION FF10143 1.0 131002.0; 10000.0 N !
FUNCTION FF10144 1.0 135436.0; 10000.0 N !
FUNCTION FF10145 1.0 143916.0; 10000.0 N !
FUNCTION FF10146 1.0 229534.0; 10000.0 N !
FUNCTION FF10147 1.0 519386.0; 10000.0 N !
FUNCTION FF10148 1.0 596758.0; 10000.0 N !
FUNCTION FF10149 1.0 501997.0; 10000.0 N !
FUNCTION FF1015 298.15 19.4656; 6000.0 N !
FUNCTION FF10150 1.0 138694.0; 10000.0 N !
FUNCTION FF10151 1.0 146594.0; 10000.0 N !
FUNCTION FF10152 1.0 167146.0; 10000.0 N !
FUNCTION FF10153 1.0 151907.0; 10000.0 N !
FUNCTION FF10154 1.0 559612.0; 10000.0 N !
FUNCTION FF10155 1.0 646655.0; 10000.0 N !
FUNCTION FF10156 1.0 545045.0; 10000.0 N !
FUNCTION FF10157 1.0 53972.5; 10000.0 N !
FUNCTION FF10158 1.0 78864.5; 10000.0 N !
FUNCTION FF10159 1.0 66322.5; 10000.0 N !
FUNCTION FF10160 1.0 178399.0; 10000.0 N !
FUNCTION FF10161 1.0 460336.0; 10000.0 N !
FUNCTION FF10162 1.0 528953.0; 10000.0 N !
FUNCTION FF10163 1.0 438607.0; 10000.0 N !
FUNCTION FF10164 1.0 203569.0; 10000.0 N !
FUNCTION FF10165 1.0 130865.0; 10000.0 N !
FUNCTION FF10166 1.0 197249.0; 10000.0 N !
FUNCTION FF10167 1.0 119446.0; 10000.0 N !
FUNCTION FF10168 1.0 412634.0; 10000.0 N !
FUNCTION FF10169 1.0 466249.0; 10000.0 N !
FUNCTION FF10170 1.0 380606.0; 10000.0 N !
FUNCTION FF10171 1.0 64270.3; 10000.0 N !
FUNCTION FF10172 1.0 106058.0; 10000.0 N !
FUNCTION FF10173 1.0 57755.6; 10000.0 N !
FUNCTION FF10174 1.0 83992.7; 10000.0 N !
FUNCTION FF10175 1.0 131663.0; 10000.0 N !
FUNCTION FF10176 1.0 81742.7; 10000.0 N !
FUNCTION FF10177 1.0 455306.0; 10000.0 N !
FUNCTION FF10178 1.0 485014.0; 10000.0 N !
FUNCTION FF10179 1.0 423304.0; 10000.0 N !
FUNCTION FF1018 298.15 28.8142; 6000.0 N !
FUNCTION FF10180 1.0 37830.6; 10000.0 N !
FUNCTION FF10181 1.0 56325.7; 10000.0 N !
FUNCTION FF10182 1.0 32256.7; 10000.0 N !
FUNCTION FF10183 1.0 99046.2; 10000.0 N !
FUNCTION FF10184 1.0 156751.0; 10000.0 N !
FUNCTION FF10185 1.0 82647.7; 10000.0 N !
FUNCTION FF10186 1.0 340050.0; 10000.0 N !
FUNCTION FF10187 1.0 391320.0; 10000.0 N !
FUNCTION FF10188 1.0 307057.0; 10000.0 N !
FUNCTION FF10189 1.0 112539.0; 10000.0 N !
FUNCTION FF10190 1.0 147277.0; 10000.0 N !
FUNCTION FF10191 1.0 98698.9; 10000.0 N !
FUNCTION FF10192 1.0 222074.0; 10000.0 N !
FUNCTION FF10193 1.0 522525.0; 10000.0 N !
FUNCTION FF10194 1.0 593964.0; 10000.0 N !
FUNCTION FF10195 1.0 471783.0; 10000.0 N !
FUNCTION FF10196 1.0 119418.0; 10000.0 N !
FUNCTION FF10197 1.0 189368.0; 10000.0 N !
FUNCTION FF10198 1.0 192022.0; 10000.0 N !
FUNCTION FF10199 1.0 196036.0; 10000.0 N !
FUNCTION FF10200 1.0 568144.0; 10000.0 N !
FUNCTION FF10201 1.0 644563.0; 10000.0 N !
FUNCTION FF10202 1.0 518494.0; 10000.0 N !
FUNCTION FF10203 1.0 69277.8; 10000.0 N !
FUNCTION FF10204 1.0 49366.3; 10000.0 N !
FUNCTION FF10205 1.0 106476.0; 10000.0 N !
FUNCTION FF10206 1.0 182742.0; 10000.0 N !
FUNCTION FF10207 1.0 444711.0; 10000.0 N !
FUNCTION FF10208 1.0 518633.0; 10000.0 N !
FUNCTION FF10209 1.0 412696.0; 10000.0 N !
FUNCTION FF10210 1.0 195456.0; 10000.0 N !
FUNCTION FF10211 1.0 277617.0; 10000.0 N !
FUNCTION FF10212 1.0 89521.3; 10000.0 N !
FUNCTION FF10213 1.0 79580.5; 10000.0 N !
FUNCTION FF10214 1.0 227751.0; 10000.0 N !
FUNCTION FF10215 1.0 38530.1; 10000.0 N !
FUNCTION FF10216 1.0 95346.0; 10000.0 N !
FUNCTION FF10217 1.0 20601.4; 10000.0 N !
FUNCTION FF10218 1.0 174832.0; 10000.0 N !
FUNCTION FF10219 1.0 295769.0; 10000.0 N !
FUNCTION FF10220 1.0 367940.0; 10000.0 N !
FUNCTION FF10221 1.0 287059.0; 10000.0 N !
FUNCTION FF10222 1.0 75604.3; 10000.0 N !
FUNCTION FF10223 1.0 209378.0; 10000.0 N !
FUNCTION FF10224 1.0 370342.0; 10000.0 N !
FUNCTION FF10225 1.0 170788.0; 10000.0 N !
FUNCTION FF10226 1.0 219499.0; 10000.0 N !
FUNCTION FF10227 1.0 161297.0; 10000.0 N !
FUNCTION FF10228 1.0 148441.0; 10000.0 N !
FUNCTION FF10229 1.0 251803.0; 10000.0 N !
FUNCTION FF10230 1.0 112933.0; 10000.0 N !
FUNCTION FF10231 1.0 157882.0; 10000.0 N !
FUNCTION FF10232 1.0 109680.0; 10000.0 N !
FUNCTION FF10233 1.0 238457.0; 10000.0 N !
FUNCTION FF10234 1.0 291104.0; 10000.0 N !
FUNCTION FF10235 1.0 229284.0; 10000.0 N !
FUNCTION FF10236 1.0 400825.0; 10000.0 N !
FUNCTION FF10237 1.0 448986.0; 10000.0 N !
FUNCTION FF10238 1.0 376962.0; 10000.0 N !
FUNCTION FF10239 1.0 177321.0; 10000.0 N !
FUNCTION FF1024 298.15 34.3145; 6000.0 N !
FUNCTION FF10240 1.0 209620.0; 10000.0 N !
FUNCTION FF10241 1.0 179842.0; 10000.0 N !
FUNCTION FF10242 1.0 157861.0; 10000.0 N !
FUNCTION FF10243 1.0 244932.0; 10000.0 N !
FUNCTION FF10244 1.0 319462.0; 10000.0 N !
FUNCTION FF10245 1.0 236164.0; 10000.0 N !
FUNCTION FF10246 1.0 91269.6; 10000.0 N !
FUNCTION FF10247 1.0 77563.0; 10000.0 N !
FUNCTION FF10248 1.0 144944.0; 10000.0 N !
FUNCTION FF10249 1.0 81531.4; 10000.0 N !
FUNCTION FF10250 1.0 173357.0; 10000.0 N !
FUNCTION FF10251 1.0 239363.0; 10000.0 N !
FUNCTION FF10252 1.0 165154.0; 10000.0 N !
FUNCTION FF10253 1.0 48122.6; 10000.0 N !
FUNCTION FF10254 1.0 96211.5; 10000.0 N !
FUNCTION FF10255 1.0 31554.3; 10000.0 N !
FUNCTION FF10256 1.0 151007.0; 10000.0 N !
FUNCTION FF10257 1.0 248035.0; 10000.0 N !
FUNCTION FF10258 1.0 305878.0; 10000.0 N !
FUNCTION FF10259 1.0 224708.0; 10000.0 N !
FUNCTION FF10260 1.0 45454.8; 10000.0 N !
FUNCTION FF10261 1.0 119908.0; 10000.0 N !
FUNCTION FF10262 1.0 356101.0; 10000.0 N !
FUNCTION FF10263 1.0 89263.6; 10000.0 N !
FUNCTION FF10264 1.0 116743.0; 10000.0 N !
FUNCTION FF10265 1.0 90771.7; 10000.0 N !
FUNCTION FF10266 1.0 127137.0; 10000.0 N !
FUNCTION FF10267 1.0 280995.0; 10000.0 N !
FUNCTION FF10268 1.0 98388.2; 10000.0 N !
FUNCTION FF10269 1.0 123393.0; 10000.0 N !
FUNCTION FF10270 1.0 78664.8; 10000.0 N !
FUNCTION FF10271 1.0 141244.0; 10000.0 N !
FUNCTION FF10272 1.0 133439.0; 10000.0 N !
FUNCTION FF10273 1.0 139249.0; 10000.0 N !
FUNCTION FF10274 1.0 375917.0; 10000.0 N !
FUNCTION FF10275 1.0 417609.0; 10000.0 N !
FUNCTION FF10276 1.0 351157.0; 10000.0 N !
FUNCTION FF10277 1.0 93249.4; 10000.0 N !
FUNCTION FF10278 1.0 109151.0; 10000.0 N !
FUNCTION FF10279 1.0 106480.0; 10000.0 N !
FUNCTION FF10280 1.0 190201.0; 10000.0 N !
FUNCTION FF10281 1.0 404497.0; 10000.0 N !
FUNCTION FF10282 1.0 161235.0; 10000.0 N !
FUNCTION FF10283 1.0 152707.0; 10000.0 N !
FUNCTION FF10284 1.0 132597.0; 10000.0 N !
FUNCTION FF10285 1.0 75439.3; 10000.0 N !
FUNCTION FF10286 1.0 33636.4; 10000.0 N !
FUNCTION FF10287 1.0 211696.0; 10000.0 N !
FUNCTION FF10288 1.0 224819.0; 10000.0 N !
FUNCTION FF10289 1.0 203710.0; 10000.0 N !
FUNCTION FF1029 298.15 16.8545; 6000.0 N !
FUNCTION FF10290 1.0 381604.0; 10000.0 N !
FUNCTION FF10291 1.0 143671.0; 10000.0 N !
FUNCTION FF10292 1.0 103606.0; 10000.0 N !
FUNCTION FF10293 1.0 116903.0; 10000.0 N !
FUNCTION FF10294 1.0 115404.0; 10000.0 N !
FUNCTION FF10295 1.0 289044.0; 10000.0 N !
FUNCTION FF10296 1.0 329983.0; 10000.0 N !
FUNCTION FF10297 1.0 283822.0; 10000.0 N !
FUNCTION FF10298 1.0 82198.1; 10000.0 N !
FUNCTION FF10299 1.0 96551.1; 10000.0 N !
FUNCTION FF10300 1.0 82186.5; 10000.0 N !
FUNCTION FF10301 1.0 143022.0; 10000.0 N !
FUNCTION FF10302 1.0 160255.0; 10000.0 N !
FUNCTION FF10303 1.0 137713.0; 10000.0 N !
FUNCTION FF10304 1.0 246211.0; 10000.0 N !
FUNCTION FF10305 1.0 90787.1; 10000.0 N !
FUNCTION FF10306 1.0 109647.0; 10000.0 N !
FUNCTION FF10307 1.0 87022.3; 10000.0 N !
FUNCTION FF10308 1.0 112342.0; 10000.0 N !
FUNCTION FF10309 1.0 298500.0; 10000.0 N !
FUNCTION FF10310 1.0 50378.4; 10000.0 N !
FUNCTION FF10311 1.0 123272.0; 10000.0 N !
FUNCTION FF10312 1.0 221023.0; 10000.0 N !
FUNCTION FF10313 1.0 306278.0; 10000.0 N !
FUNCTION FF10314 1.0 222951.0; 10000.0 N !
FUNCTION FF10315 1.0 110851.0; 10000.0 N !
FUNCTION FF10316 1.0 88113.5; 10000.0 N !
FUNCTION FF10317 1.0 159272.0; 10000.0 N !
FUNCTION FF10318 1.0 84469.3; 10000.0 N !
FUNCTION FF10319 1.0 171186.0; 10000.0 N !
FUNCTION FF10320 1.0 231171.0; 10000.0 N !
FUNCTION FF10321 1.0 158453.0; 10000.0 N !
FUNCTION FF10322 1.0 85650.3; 10000.0 N !
FUNCTION FF10323 1.0 121654.0; 10000.0 N !
FUNCTION FF10324 1.0 36504.0; 10000.0 N !
FUNCTION FF10325 1.0 144060.0; 10000.0 N !
FUNCTION FF10326 1.0 209624.0; 10000.0 N !
FUNCTION FF10327 1.0 281550.0; 10000.0 N !
FUNCTION FF10328 1.0 200944.0; 10000.0 N !
FUNCTION FF10329 1.0 107948.0; 10000.0 N !
FUNCTION FF10330 1.0 192613.0; 10000.0 N !
FUNCTION FF10331 1.0 254914.0; 10000.0 N !
FUNCTION FF10332 1.0 192732.0; 10000.0 N !
FUNCTION FF10333 1.0 313879.0; 10000.0 N !
FUNCTION FF10334 1.0 360839.0; 10000.0 N !
FUNCTION FF10335 1.0 301102.0; 10000.0 N !
FUNCTION FF10336 1.0 164461.0; 10000.0 N !
FUNCTION FF10337 1.0 201203.0; 10000.0 N !
FUNCTION FF10338 1.0 139093.0; 10000.0 N !
FUNCTION FF10339 1.0 143022.0; 10000.0 N !
FUNCTION FF10340 1.0 215483.0; 10000.0 N !
FUNCTION FF10341 1.0 145485.0; 10000.0 N !
FUNCTION FF10342 1.0 198278.0; 10000.0 N !
FUNCTION FF10343 1.0 85909.8; 10000.0 N !
FUNCTION FF10344 1.0 197858.0; 10000.0 N !
FUNCTION FF10345 1.0 243848.0; 10000.0 N !
FUNCTION FF10346 1.0 185443.0; 10000.0 N !
FUNCTION FF10347 1.0 307835.0; 10000.0 N !
FUNCTION FF10348 1.0 152744.0; 10000.0 N !
FUNCTION FF10349 1.0 118319.0; 10000.0 N !
FUNCTION FF10350 1.0 157514.0; 10000.0 N !
FUNCTION FF10351 1.0 246097.0; 10000.0 N !
FUNCTION FF10352 1.0 156822.0; 10000.0 N !
FUNCTION FF10353 1.0 130878.0; 10000.0 N !
FUNCTION FF10354 1.0 62291.4; 10000.0 N !
FUNCTION FF10355 1.0 132234.0; 10000.0 N !
FUNCTION FF10356 1.0 57185.4; 10000.0 N !
FUNCTION FF10357 1.0 99355.0; 10000.0 N !
FUNCTION FF10358 1.0 75241.5; 10000.0 N !
FUNCTION FF10359 1.0 121147.0; 10000.0 N !
FUNCTION FF10360 1.0 149299.0; 10000.0 N !
FUNCTION FF116 1.0 0; 10000.0 N !
FUNCTION FF1162 1.0 0; 10000.0 N !
FUNCTION FF1166 298.15 130; 6000.0 N !
FUNCTION FF1168 1.0 0; 10000.0 N !

FUNCTION FF160000 1.0 84934.74982; 10000.0 N !
FUNCTION FF160001 1.0 -20012.0567166427; 10000.0 N !
FUNCTION FF160002 1.0 124113.509464119; 10000.0 N !
FUNCTION FF160003 1.0 6456.40455816036; 10000.0 N !
FUNCTION FF160004 1.0 -14922.6163901681; 10000.0 N !
FUNCTION FF160005 1.0 -40048.1618396857; 10000.0 N !
FUNCTION FF160006 1.0 121347.545338426; 10000.0 N !
FUNCTION FF160007 1.0 47387.1303820384; 10000.0 N !
FUNCTION FF160008 1.0 -13643.21675; 10000.0 N !
FUNCTION FF160009 1.0 -42947.3346630527; 10000.0 N !
FUNCTION FF160010 1.0 299305.035415122; 10000.0 N !
FUNCTION FF160011 1.0 -96130.895493718; 10000.0 N !
FUNCTION FF160012 1.0 -440.290467707012; 10000.0 N !
FUNCTION FF160013 1.0 12.9420055445597; 10000.0 N !
FUNCTION FF160014 1.0 1563.34338026857; 10000.0 N !
FUNCTION FF160015 1.0 5.85875049947978; 10000.0 N !
FUNCTION FF160016 1.0 10000; 10000.0 N !
FUNCTION FF160017 1.0 0; 10000.0 N !
FUNCTION FF160020 1.0 3.0030012212688; 10000.0 N !
FUNCTION FF160021 1.0 -6.2270668700071; 10000.0 N !
FUNCTION FF160022 1.0 -300000; 10000.0 N !
FUNCTION FF160023 1.0 4000000; 10000.0 N !
FUNCTION FF160024 1.0 -800000; 10000.0 N !
FUNCTION FF160025 1.0 -20; 10000.0 N !
FUNCTION FF160026 1.0 -10; 10000.0 N !

FUNCTION FF16116 1.0 542297.0; 10000.0 N !
FUNCTION FF16117 1.0 64894.5; 10000.0 N !
FUNCTION FF16118 1.0 124097.0; 10000.0 N !
FUNCTION FF16119 1.0 596936.0; 10000.0 N !
FUNCTION FF16120 1.0 -17838.1; 10000.0 N !
FUNCTION FF16121 1.0 -36777.0; 10000.0 N !
FUNCTION FF16122 1.0 -4045.6; 10000.0 N !
FUNCTION FF16123 1.0 184035.0; 10000.0 N !
FUNCTION FF16124 1.0 210847.0; 10000.0 N !
FUNCTION FF16125 1.0 297307.0; 10000.0 N !
FUNCTION FF16126 1.0 498512.0; 10000.0 N !
FUNCTION FF16127 1.0 119146.0; 10000.0 N !
FUNCTION FF16128 1.0 -5622.15; 10000.0 N !
FUNCTION FF16129 1.0 360338.0; 10000.0 N !
FUNCTION FF16130 1.0 -59756.7; 10000.0 N !
FUNCTION FF16131 1.0 -6811.81; 10000.0 N !
FUNCTION FF16132 1.0 -77208.9; 10000.0 N !
FUNCTION FF16133 1.0 -21424.4; 10000.0 N !
FUNCTION FF16134 1.0 -104808.0; 10000.0 N !
FUNCTION FF16135 1.0 17314.2; 10000.0 N !
FUNCTION FF16136 1.0 8203.12; 10000.0 N !
FUNCTION FF16137 1.0 330733.0; 10000.0 N !
FUNCTION FF16138 1.0 310081.0; 10000.0 N !
FUNCTION FF16139 1.0 12331.7; 10000.0 N !
FUNCTION FF16140 1.0 179695.0; 10000.0 N !
FUNCTION FF16141 1.0 476587.0; 10000.0 N !
FUNCTION FF16142 1.0 26628.8; 10000.0 N !
FUNCTION FF16143 1.0 147673.0; 10000.0 N !
FUNCTION FF16144 1.0 116066.0; 10000.0 N !
FUNCTION FF16145 1.0 148559.0; 10000.0 N !
FUNCTION FF16146 1.0 -20695.0; 10000.0 N !
FUNCTION FF16147 1.0 -92540.3; 10000.0 N !
FUNCTION FF16148 1.0 6480.87; 10000.0 N !
FUNCTION FF16149 1.0 154599.0; 10000.0 N !
FUNCTION FF16150 1.0 95292.0; 10000.0 N !
FUNCTION FF16151 1.0 77537.9; 10000.0 N !
FUNCTION FF16152 1.0 -5596.1; 10000.0 N !
FUNCTION FF16153 1.0 12667.5; 10000.0 N !
FUNCTION FF16154 1.0 9801.86; 10000.0 N !
FUNCTION FF16155 1.0 -6485.69; 10000.0 N !
FUNCTION FF16156 1.0 90264.2; 10000.0 N !
FUNCTION FF16157 1.0 122551.0; 10000.0 N !
FUNCTION FF16158 1.0 87700.6; 10000.0 N !
FUNCTION FF16159 1.0 477748.0; 10000.0 N !
FUNCTION FF16160 1.0 574920.0; 10000.0 N !
FUNCTION FF16161 1.0 466266.0; 10000.0 N !
FUNCTION FF16162 1.0 21951.2; 10000.0 N !
FUNCTION FF16163 1.0 36389.1; 10000.0 N !
FUNCTION FF16164 1.0 23050.2; 10000.0 N !
FUNCTION FF16165 1.0 -118532.0; 10000.0 N !
FUNCTION FF16166 1.0 323877.0; 10000.0 N !
FUNCTION FF16167 1.0 -177258.0; 10000.0 N !
FUNCTION FF16168 1.0 -135125.0; 10000.0 N !
FUNCTION FF16169 1.0 -194547.0; 10000.0 N !
FUNCTION FF16170 1.0 -172255.0; 10000.0 N !
FUNCTION FF16171 1.0 -260994.0; 10000.0 N !
FUNCTION FF16172 1.0 -99208.3; 10000.0 N !
FUNCTION FF16173 1.0 -23021.2; 10000.0 N !
FUNCTION FF16174 1.0 -107642.0; 10000.0 N !
FUNCTION FF16175 1.0 313813.0; 10000.0 N !
FUNCTION FF16176 1.0 -192306.0; 10000.0 N !
FUNCTION FF16177 1.0 113318.0; 10000.0 N !
FUNCTION FF16178 1.0 114285.0; 10000.0 N !
FUNCTION FF16179 1.0 111369.0; 10000.0 N !
FUNCTION FF16180 1.0 449326.0; 10000.0 N !
FUNCTION FF16181 1.0 564484.0; 10000.0 N !
FUNCTION FF16182 1.0 411015.0; 10000.0 N !
FUNCTION FF16183 1.0 13271.4; 10000.0 N !
FUNCTION FF16184 1.0 -21985.9; 10000.0 N !
FUNCTION FF16185 1.0 41551.1; 10000.0 N !
FUNCTION FF16186 1.0 15861.1; 10000.0 N !
FUNCTION FF16187 1.0 -33720.4; 10000.0 N !
FUNCTION FF16188 1.0 15354.6; 10000.0 N !
FUNCTION FF16189 1.0 337306.0; 10000.0 N !
FUNCTION FF16190 1.0 -149183.0; 10000.0 N !
FUNCTION FF16191 1.0 95171.4; 10000.0 N !
FUNCTION FF16192 1.0 105295.0; 10000.0 N !
FUNCTION FF16193 1.0 86248.5; 10000.0 N !
FUNCTION FF16194 1.0 414973.0; 10000.0 N !
FUNCTION FF16195 1.0 62217.1; 10000.0 N !
FUNCTION FF16196 1.0 223006.0; 10000.0 N !
FUNCTION FF16197 1.0 219602.0; 10000.0 N !
FUNCTION FF16198 1.0 215921.0; 10000.0 N !
FUNCTION FF16199 1.0 505913.0; 10000.0 N !
FUNCTION FF16200 1.0 101297.0; 10000.0 N !
FUNCTION FF16201 1.0 136799.0; 10000.0 N !
FUNCTION FF16202 1.0 146207.0; 10000.0 N !
FUNCTION FF16203 1.0 137371.0; 10000.0 N !
FUNCTION FF16204 1.0 613676.0; 10000.0 N !
FUNCTION FF16205 1.0 689274.0; 10000.0 N !
FUNCTION FF16206 1.0 592737.0; 10000.0 N !
FUNCTION FF16207 1.0 -31657.5; 10000.0 N !
FUNCTION FF16208 1.0 -52402.7; 10000.0 N !
FUNCTION FF16209 1.0 -18956.3; 10000.0 N !
FUNCTION FF16210 1.0 163103.0; 10000.0 N !
FUNCTION FF16211 1.0 411008.0; 10000.0 N !
FUNCTION FF16212 1.0 495674.0; 10000.0 N !
FUNCTION FF16213 1.0 401094.0; 10000.0 N !
FUNCTION FF16214 1.0 163501.0; 10000.0 N !
FUNCTION FF16215 1.0 40769.5; 10000.0 N !
FUNCTION FF16216 1.0 143309.0; 10000.0 N !
FUNCTION FF16217 1.0 19278.6; 10000.0 N !
FUNCTION FF16218 1.0 340402.0; 10000.0 N !
FUNCTION FF16219 1.0 356960.0; 10000.0 N !
FUNCTION FF16220 1.0 332144.0; 10000.0 N !
FUNCTION FF16221 1.0 -23592.4; 10000.0 N !
FUNCTION FF16222 1.0 36702.7; 10000.0 N !
FUNCTION FF16223 1.0 -36968.1; 10000.0 N !
FUNCTION FF16224 1.0 -12310.5; 10000.0 N !
FUNCTION FF16225 1.0 63675.9; 10000.0 N !
FUNCTION FF16226 1.0 -16191.1; 10000.0 N !
FUNCTION FF16227 1.0 397650.0; 10000.0 N !
FUNCTION FF16228 1.0 -138020.0; 10000.0 N !
FUNCTION FF16229 1.0 4197.08; 10000.0 N !
FUNCTION FF16230 1.0 94118.7; 10000.0 N !
FUNCTION FF16231 1.0 -12427.2; 10000.0 N !
FUNCTION FF16232 1.0 215866.0; 10000.0 N !
FUNCTION FF16233 1.0 -4925.54; 10000.0 N !
FUNCTION FF16234 1.0 226245.0; 10000.0 N !
FUNCTION FF16235 1.0 510047.0; 10000.0 N !
FUNCTION FF16236 1.0 605312.0; 10000.0 N !
FUNCTION FF16237 1.0 463809.0; 10000.0 N !
FUNCTION FF16238 1.0 60096.4; 10000.0 N !
FUNCTION FF16239 1.0 177930.0; 10000.0 N !
FUNCTION FF16240 1.0 155002.0; 10000.0 N !
FUNCTION FF16241 1.0 178289.0; 10000.0 N !
FUNCTION FF16242 1.0 594677.0; 10000.0 N !
FUNCTION FF16243 1.0 -26750.3; 10000.0 N !
FUNCTION FF16244 1.0 156358.0; 10000.0 N !
FUNCTION FF16245 1.0 373921.0; 10000.0 N !
FUNCTION FF16246 1.0 405883.45252224; 10000.0 N !
FUNCTION FF16247 1.0 -115295.1683083205; 10000.0 N !
FUNCTION FF16248 1.0 -128006.0418713996; 10000.0 N !
FUNCTION FF16249 1.0 111889.2639757212; 10000.0 N !
FUNCTION FF16250 1.0 311892.0710875206; 10000.0 N !
FUNCTION FF16251 1.0 -38982.6495042598; 10000.0 N !
FUNCTION FF16252 1.0 -78748.7534895597; 10000.0 N !
FUNCTION FF16253 1.0 232847.4613400406; 10000.0 N !
FUNCTION FF16254 1.0 227748.6920058198; 10000.0 N !
FUNCTION FF16255 1.0 594962.2797888002; 10000.0 N !
FUNCTION FF16256 1.0 698605.9748051991; 10000.0 N !
FUNCTION FF16257 1.0 530060.0229216606; 10000.0 N !
FUNCTION FF16258 1.0 455234.330909819; 10000.0 N !
FUNCTION FF16259 1.0 547150.32984612; 10000.0 N !
FUNCTION FF16260 1.0 415706.5437432598; 10000.0 N !
FUNCTION FF16261 1.0 481427.9543719794; 10000.0 N !
FUNCTION FF16262 1.0 347219.8861408203; 10000.0 N !
FUNCTION FF16263 1.0 -132667.2100954202; 10000.0 N !
FUNCTION FF16264 1.0 -161214.0915369604; 10000.0 N !
FUNCTION FF16265 1.0 -118410.6541694996; 10000.0 N !

FUNCTION FF2014 1 -131558.895591796; 10000 N !
FUNCTION FF2022 1 5953.28834236305; 10000 N !
FUNCTION FF2026 1 -134717.870286792; 10000 N !
FUNCTION FF2030 1 58906.3812678098; 10000 N !
FUNCTION FF2032 1 494327.670935803; 10000 N !
FUNCTION FF2033 1 493119.589916903; 10000 N !
FUNCTION FF2034 1 -150153.83446131; 10000 N !
FUNCTION FF2035 1 2269.70958689655; 10000 N !
FUNCTION FF2038 1 151270.719433344; 10000 N !
FUNCTION FF2114 1 -218623.740220968; 10000 N !
FUNCTION FF2116 1 -130.098044910099; 10000 N !
FUNCTION FF2117 1 -137115.794321021; 10000 N !
FUNCTION FF2119 1 -134.246250078871; 10000 N !
FUNCTION FF2123 1 -242166.471446692; 10000 N !
FUNCTION FF2125 1 -164.026869601384; 10000 N !
FUNCTION FF2265 1 -136819.389731292; 10000 N !
FUNCTION FF2267 1 -661388.244132556; 10000 N !
FUNCTION FF2307 1 -129712.630565805; 10000 N !
FUNCTION FF2309 1 8.8536863815839; 10000 N !